BAYES
400
2 2 2 2 2 2 2 2 2 2 2 2 2 2 2 2 2 2 2 2 2 2 2 2 2 2 2 2 2 2 2 2 2 2 2 2 2 2 2 2 2 2 2 2 2 2 2 2 2 2 2 2 2 2 2 2 2 2 2 2 2 2 2 2 2 2 2 2 2 2 2 2 2 2 2 2 2 2 2 2 2 2 2 2 2 2 2 2 2 2 2 2 2 2 2 2 2 2 2 2 2 2 2 2 2 2 2 2 2 2 2 2 2 2 2 2 2 2 2 2 2 2 2 2 2 2 2 2 2 2 2 2 2 2 2 2 2 2 2 2 2 2 2 2 2 2 2 2 2 2 2 2 2 2 2 2 2 2 2 2 2 2 2 2 2 2 2 2 2 2 2 2 2 2 2 2 2 2 2 2 2 2 2 2 2 2 2 2 2 2 2 2 2 2 2 2 2 2 2 2 2 2 2 2 2 2 2 2 2 2 2 2 2 2 2 2 2 2 2 2 2 2 2 2 2 2 2 2 2 2 2 2 2 2 2 2 2 2 2 2 2 2 2 2 2 2 2 2 2 2 2 2 2 2 2 2 2 2 2 2 2 2 2 2 2 2 2 2 2 2 2 2 2 2 2 2 2 2 2 2 2 2 2 2 2 2 2 2 2 2 2 2 2 2 2 2 2 2 2 2 2 2 2 2 2 2 2 2 2 2 2 2 2 2 2 2 2 2 2 2 2 2 2 2 2 2 2 2 2 2 2 2 2 2 2 2 2 2 2 2 2 2 2 2 2 2 2 2 2 2 2 2 2 2 2 2 2 2 2 2 2 2 2 2 2 2 2 2 2 2 2 2 2 2 2 2 2 2 2 2 2 2 2 2 2 2 2 2 2 2 2 2 2 2 2 2 2 2 2 2
400
3 1 20 0
3 2 21 1
3 3 22 2
3 4 23 3
3 5 24 4
3 6 25 5
3 7 26 6
3 8 27 7
3 9 28 8
3 10 29 9
3 11 30 10
3 12 31 11
3 13 32 12
3 14 33 13
3 15 34 14
3 16 35 15
3 17 36 16
3 18 37 17
3 19 38 18
2 20 19
3 21 40 20
3 22 41 21
3 23 42 22
3 24 43 23
3 25 44 24
3 26 45 25
3 27 46 26
3 28 47 27
3 29 48 28
3 30 49 29
3 31 50 30
3 32 51 31
3 33 52 32
3 34 53 33
3 35 54 34
3 36 55 35
3 37 56 36
3 38 57 37
3 39 58 38
2 40 39
3 41 60 40
3 42 61 41
3 43 62 42
3 44 63 43
3 45 64 44
3 46 65 45
3 47 66 46
3 48 67 47
3 49 68 48
3 50 69 49
3 51 70 50
3 52 71 51
3 53 72 52
3 54 73 53
3 55 74 54
3 56 75 55
3 57 76 56
3 58 77 57
3 59 78 58
2 60 59
3 61 80 60
3 62 81 61
3 63 82 62
3 64 83 63
3 65 84 64
3 66 85 65
3 67 86 66
3 68 87 67
3 69 88 68
3 70 89 69
3 71 90 70
3 72 91 71
3 73 92 72
3 74 93 73
3 75 94 74
3 76 95 75
3 77 96 76
3 78 97 77
3 79 98 78
2 80 79
3 81 100 80
3 82 101 81
3 83 102 82
3 84 103 83
3 85 104 84
3 86 105 85
3 87 106 86
3 88 107 87
3 89 108 88
3 90 109 89
3 91 110 90
3 92 111 91
3 93 112 92
3 94 113 93
3 95 114 94
3 96 115 95
3 97 116 96
3 98 117 97
3 99 118 98
2 100 99
3 101 120 100
3 102 121 101
3 103 122 102
3 104 123 103
3 105 124 104
3 106 125 105
3 107 126 106
3 108 127 107
3 109 128 108
3 110 129 109
3 111 130 110
3 112 131 111
3 113 132 112
3 114 133 113
3 115 134 114
3 116 135 115
3 117 136 116
3 118 137 117
3 119 138 118
2 120 119
3 121 140 120
3 122 141 121
3 123 142 122
3 124 143 123
3 125 144 124
3 126 145 125
3 127 146 126
3 128 147 127
3 129 148 128
3 130 149 129
3 131 150 130
3 132 151 131
3 133 152 132
3 134 153 133
3 135 154 134
3 136 155 135
3 137 156 136
3 138 157 137
3 139 158 138
2 140 139
3 141 160 140
3 142 161 141
3 143 162 142
3 144 163 143
3 145 164 144
3 146 165 145
3 147 166 146
3 148 167 147
3 149 168 148
3 150 169 149
3 151 170 150
3 152 171 151
3 153 172 152
3 154 173 153
3 155 174 154
3 156 175 155
3 157 176 156
3 158 177 157
3 159 178 158
2 160 159
3 161 180 160
3 162 181 161
3 163 182 162
3 164 183 163
3 165 184 164
3 166 185 165
3 167 186 166
3 168 187 167
3 169 188 168
3 170 189 169
3 171 190 170
3 172 191 171
3 173 192 172
3 174 193 173
3 175 194 174
3 176 195 175
3 177 196 176
3 178 197 177
3 179 198 178
2 180 179
3 181 200 180
3 182 201 181
3 183 202 182
3 184 203 183
3 185 204 184
3 186 205 185
3 187 206 186
3 188 207 187
3 189 208 188
3 190 209 189
3 191 210 190
3 192 211 191
3 193 212 192
3 194 213 193
3 195 214 194
3 196 215 195
3 197 216 196
3 198 217 197
3 199 218 198
2 200 199
3 201 220 200
3 202 221 201
3 203 222 202
3 204 223 203
3 205 224 204
3 206 225 205
3 207 226 206
3 208 227 207
3 209 228 208
3 210 229 209
3 211 230 210
3 212 231 211
3 213 232 212
3 214 233 213
3 215 234 214
3 216 235 215
3 217 236 216
3 218 237 217
3 219 238 218
2 220 219
3 221 240 220
3 222 241 221
3 223 242 222
3 224 243 223
3 225 244 224
3 226 245 225
3 227 246 226
3 228 247 227
3 229 248 228
3 230 249 229
3 231 250 230
3 232 251 231
3 233 252 232
3 234 253 233
3 235 254 234
3 236 255 235
3 237 256 236
3 238 257 237
3 239 258 238
2 240 239
3 241 260 240
3 242 261 241
3 243 262 242
3 244 263 243
3 245 264 244
3 246 265 245
3 247 266 246
3 248 267 247
3 249 268 248
3 250 269 249
3 251 270 250
3 252 271 251
3 253 272 252
3 254 273 253
3 255 274 254
3 256 275 255
3 257 276 256
3 258 277 257
3 259 278 258
2 260 259
3 261 280 260
3 262 281 261
3 263 282 262
3 264 283 263
3 265 284 264
3 266 285 265
3 267 286 266
3 268 287 267
3 269 288 268
3 270 289 269
3 271 290 270
3 272 291 271
3 273 292 272
3 274 293 273
3 275 294 274
3 276 295 275
3 277 296 276
3 278 297 277
3 279 298 278
2 280 279
3 281 300 280
3 282 301 281
3 283 302 282
3 284 303 283
3 285 304 284
3 286 305 285
3 287 306 286
3 288 307 287
3 289 308 288
3 290 309 289
3 291 310 290
3 292 311 291
3 293 312 292
3 294 313 293
3 295 314 294
3 296 315 295
3 297 316 296
3 298 317 297
3 299 318 298
2 300 299
3 301 320 300
3 302 321 301
3 303 322 302
3 304 323 303
3 305 324 304
3 306 325 305
3 307 326 306
3 308 327 307
3 309 328 308
3 310 329 309
3 311 330 310
3 312 331 311
3 313 332 312
3 314 333 313
3 315 334 314
3 316 335 315
3 317 336 316
3 318 337 317
3 319 338 318
2 320 319
3 321 340 320
3 322 341 321
3 323 342 322
3 324 343 323
3 325 344 324
3 326 345 325
3 327 346 326
3 328 347 327
3 329 348 328
3 330 349 329
3 331 350 330
3 332 351 331
3 333 352 332
3 334 353 333
3 335 354 334
3 336 355 335
3 337 356 336
3 338 357 337
3 339 358 338
2 340 339
3 341 360 340
3 342 361 341
3 343 362 342
3 344 363 343
3 345 364 344
3 346 365 345
3 347 366 346
3 348 367 347
3 349 368 348
3 350 369 349
3 351 370 350
3 352 371 351
3 353 372 352
3 354 373 353
3 355 374 354
3 356 375 355
3 357 376 356
3 358 377 357
3 359 378 358
2 360 359
3 361 380 360
3 362 381 361
3 363 382 362
3 364 383 363
3 365 384 364
3 366 385 365
3 367 386 366
3 368 387 367
3 369 388 368
3 370 389 369
3 371 390 370
3 372 391 371
3 373 392 372
3 374 393 373
3 375 394 374
3 376 395 375
3 377 396 376
3 378 397 377
3 379 398 378
2 380 379
2 400 380
2 401 381
2 402 382
2 403 383
2 404 384
2 405 385
2 406 386
2 407 387
2 408 388
2 409 389
2 410 390
2 411 391
2 412 392
2 413 393
2 414 394
2 415 395
2 416 396
2 417 397
2 418 398
1  399
8
1 0 1 0 1 0 1 0
8
1 0 1 0 1 0 0 1
8
1 0 1 0 1 0 1 0
8
0 1 1 0 0 1 0 1
8
0 1 0 1 1 0 1 0
8
0 1 1 0 1 0 1 0
8
1 0 1 0 0 1 1 0
8
0 1 1 0 1 0 1 0
8
1 0 1 0 1 0 0 1
8
0 1 1 0 1 0 0 1
8
1 0 0 1 0 1 0 1
8
1 0 0 1 1 0 0 1
8
0.35953033964878056 0.6404696603512194 0.4876568942660387 0.5123431057339612 0.5682112323069739 0.43178876769302615 0.7642071759532019 0.23579282404679816
8
1 0 0 1 0 1 0 1
8
0 1 1 0 1 0 1 0
8
0 1 1 0 1 0 0 1
8
1 0 0 1 1 0 1 0
8
0 1 0 1 1 0 0 1
8
0 1 1 0 0 1 0 1
4
0 1 0 1
8
0 1 0 1 1 0 1 0
8
0 1 0 1 1 0 0 1
8
1 0 1 0 1 0 1 0
8
0 1 0 1 0 1 0 1
8
0.4407553846583028 0.5592446153416972 0.7936799264658477 0.2063200735341523 0.6064507994439535 0.3935492005560465 0.9002149587992042 0.09978504120079575
8
0 1 0 1 1 0 0 1
8
1 0 0 1 0 1 0 1
8
0 1 0 1 0 1 0 1
8
0 1 0 1 0 1 0 1
8
1 0 0 1 1 0 0 1
8
1 0 1 0 1 0 0 1
8
1 0 0 1 1 0 0 1
8
0 1 0 1 0 1 1 0
8
0.7400775552012375 0.2599224447987624 0.5837863334910897 0.4162136665089104 0.44977595713427276 0.5502240428657271 0.9959911631179285 0.004008836882071552
8
1 0 0 1 1 0 1 0
8
1 0 1 0 1 0 1 0
8
1 0 0 1 1 0 0 1
8
1 0 0 1 0 1 1 0
8
0 1 1 0 1 0 1 0
4
0.5609399999159901 0.4390600000840099 0.6065172716332441 0.3934827283667559
8
0.6244627046588367 0.37553729534116326 0.5775516507201696 0.42244834927983044 0.8013576225378095 0.1986423774621906 0.18654934353317146 0.8134506564668286
8
0 1 1 0 0 1 0 1
8
0 1 1 0 1 0 0 1
8
0 1 0 1 1 0 0 1
8
1 0 1 0 0 1 0 1
8
0.816445679947336 0.183554320052664 0.3155669448522702 0.6844330551477298 0.7769042613254786 0.22309573867452137 0.31871447990107293 0.6812855200989271
8
0 1 0 1 0 1 1 0
8
0 1 1 0 0 1 0 1
8
1 0 0 1 0 1 0 1
8
1 0 1 0 0 1 1 0
8
1 0 1 0 0 1 1 0
8
1 0 0 1 1 0 0 1
8
1 0 1 0 0 1 1 0
8
1 0 0 1 0 1 0 1
8
1 0 0 1 0 1 1 0
8
1 0 1 0 1 0 0 1
8
1 0 1 0 1 0 0 1
8
0 1 0 1 0 1 1 0
8
1 0 1 0 1 0 1 0
4
0.8410627293980577 0.15893727060194224 0.5202904964143784 0.4797095035856217
8
0 1 1 0 1 0 1 0
8
0 1 1 0 1 0 1 0
8
1 0 1 0 0 1 1 0
8
0 1 1 0 1 0 0 1
8
0.5538642930612242 0.44613570693877574 0.7142498891777931 0.28575011082220686 0.7399228513896271 0.2600771486103729 0.20232485168366546 0.7976751483163346
8
0 1 0 1 0 1 0 1
8
1 0 0 1 0 1 1 0
8
1 0 1 0 0 1 0 1
8
1 0 0 1 1 0 1 0
8
1 0 0 1 0 1 1 0
8
0.1384909410558082 0.8615090589441918 0.4646688116824373 0.5353311883175628 0.06643670489321168 0.9335632951067884 0.2313846279349653 0.7686153720650347
8
1 0 1 0 0 1 1 0
8
1 0 0 1 1 0 0 1
8
0 1 1 0 1 0 1 0
8
1 0 0 1 1 0 1 0
8
1 0 0 1 1 0 0 1
8
0 1 1 0 1 0 1 0
8
0 1 0 1 1 0 1 0
8
1 0 1 0 1 0 0 1
4
0 1 1 0
8
0 1 0 1 1 0 1 0
8
0 1 0 1 0 1 1 0
8
1 0 0 1 0 1 1 0
8
1 0 0 1 0 1 0 1
8
1 0 1 0 0 1 0 1
8
0 1 0 1 0 1 1 0
8
0 1 0 1 1 0 0 1
8
1 0 1 0 1 0 1 0
8
0.03906042610155901 0.960939573898441 0.2044898952735476 0.7955101047264523 0.26278469460644815 0.737215305393552 0.8066863756576378 0.19331362434236224
8
1 0 1 0 1 0 0 1
8
0 1 0 1 0 1 0 1
8
1 0 0 1 0 1 0 1
8
0 1 0 1 1 0 1 0
8
0 1 0 1 0 1 0 1
8
0.4657843397220351 0.534215660277965 0.4720192954028182 0.5279807045971818 0.5231697670178446 0.4768302329821555 0.7460414790983038 0.2539585209016963
8
0 1 0 1 1 0 0 1
8
0 1 1 0 0 1 1 0
8
0 1 1 0 0 1 1 0
8
1 0 1 0 1 0 0 1
4
1 0 1 0
8
0 1 1 0 1 0 1 0
8
0 1 0 1 0 1 1 0
8
1 0 1 0 1 0 0 1
8
1 0 0 1 0 1 1 0
8
0.3224894343692924 0.6775105656307076 0.7831914395214137 0.2168085604785864 0.7941534920384274 0.20584650796157253 0.4407661222913909 0.5592338777086091
8
0.4051076871803518 0.5948923128196484 0.719545772954445 0.28045422704555495 0.6802146202050346 0.31978537979496535 0.27148223672237526 0.7285177632776246
8
0.5328287139398312 0.4671712860601688 0.7318670295569235 0.2681329704430765 0.5013133260370364 0.49868667396296357 0.6950243768451695 0.3049756231548304
8
0 1 1 0 0 1 1 0
8
0 1 0 1 0 1 1 0
8
0 1 0 1 0 1 1 0
8
1 0 1 0 1 0 0 1
8
0.6953383459060821 0.3046616540939178 0.6109272613034064 0.38907273869659365 0.8501019525497047 0.14989804745029534 0.7067866396998445 0.2932133603001555
8
1 0 0 1 0 1 0 1
8
0 1 0 1 0 1 0 1
8
1 0 1 0 0 1 1 0
8
1 0 1 0 0 1 1 0
8
1 0 1 0 0 1 0 1
8
1 0 1 0 0 1 1 0
8
0 1 1 0 0 1 0 1
4
0 1 1 0
8
0 1 1 0 0 1 1 0
8
1 0 0 1 0 1 1 0
8
0 1 1 0 1 0 0 1
8
1 0 0 1 1 0 0 1
8
0 1 0 1 1 0 1 0
8
0 1 1 0 1 0 0 1
8
1 0 1 0 1 0 1 0
8
1 0 1 0 0 1 1 0
8
0 1 1 0 0 1 1 0
8
0 1 1 0 1 0 1 0
8
0.4627177919359442 0.5372822080640558 0.3325457354181162 0.6674542645818837 0.29508689379032393 0.7049131062096761 0.7019132465282311 0.29808675347176894
8
0.029876088475193855 0.9701239115248061 0.2252231215464761 0.7747768784535239 0.4537975082059928 0.5462024917940072 0.38562232053359186 0.6143776794664082
8
1 0 1 0 1 0 1 0
8
0 1 0 1 0 1 1 0
8
1 0 0 1 1 0 1 0
8
1 0 1 0 1 0 0 1
8
1 0 0 1 1 0 0 1
8
1 0 0 1 1 0 1 0
8
0.4056551225881528 0.5943448774118472 0.34320755490150856 0.6567924450984914 0.6432670741847247 0.3567329258152753 0.3563537938983651 0.6436462061016349
4
0 1 0 1
8
0.40452611679995254 0.5954738832000475 0.7044796601471441 0.2955203398528559 0.19878841954928997 0.8012115804507102 0.7150548490916102 0.2849451509083898
8
1 0 0 1 1 0 0 1
8
0 1 1 0 1 0 0 1
8
0 1 1 0 1 0 0 1
8
1 0 1 0 0 1 0 1
8
0 1 1 0 0 1 0 1
8
0 1 1 0 0 1 1 0
8
0 1 1 0 0 1 0 1
8
1 0 1 0 0 1 1 0
8
1 0 0 1 0 1 1 0
8
0 1 0 1 1 0 0 1
8
1 0 1 0 0 1 0 1
8
0 1 1 0 0 1 1 0
8
0 1 1 0 1 0 1 0
8
1 0 0 1 1 0 1 0
8
0 1 0 1 0 1 1 0
8
1 0 0 1 0 1 0 1
8
1 0 0 1 0 1 0 1
8
1 0 1 0 0 1 0 1
4
1 0 0 1
8
0.6492247123779725 0.3507752876220275 0.25619726865343495 0.743802731346565 0.5248064976329353 0.47519350236706476 0.9402812580286485 0.059718741971351436
8
0.8743652992716625 0.12563470072833766 0.9035171806606274 0.09648281933937267 0.7644973317931905 0.23550266820680946 0.559713353758445 0.4402866462415551
8
1 0 0 1 0 1 0 1
8
0 1 1 0 1 0 0 1
8
0 1 1 0 1 0 1 0
8
1 0 0 1 0 1 0 1
8
1 0 0 1 0 1 0 1
8
1 0 1 0 1 0 0 1
8
0 1 0 1 0 1 0 1
8
1 0 0 1 1 0 1 0
8
1 0 0 1 1 0 0 1
8
0 1 0 1 0 1 0 1
8
0 1 1 0 1 0 1 0
8
1 0 0 1 1 0 1 0
8
0 1 1 0 0 1 0 1
8
1 0 1 0 0 1 0 1
8
1 0 0 1 0 1 0 1
8
1 0 1 0 0 1 0 1
8
0 1 1 0 0 1 1 0
4
1 0 0 1
8
1 0 0 1 1 0 0 1
8
1 0 1 0 0 1 0 1
8
1 0 0 1 0 1 1 0
8
0.5626084542809696 0.4373915457190304 0.5738065924668714 0.4261934075331287 0.315570507827617 0.684429492172383 0.5853007842661571 0.4146992157338429
8
1 0 0 1 1 0 1 0
8
0.29634351741295106 0.7036564825870489 0.36645739669704624 0.6335426033029536 0.15161723119283624 0.8483827688071638 0.4515635474582381 0.5484364525417619
8
0 1 0 1 1 0 1 0
8
0 1 0 1 0 1 1 0
8
1 0 1 0 0 1 0 1
8
0 1 1 0 1 0 1 0
8
1 0 0 1 1 0 0 1
8
1 0 1 0 1 0 1 0
8
0 1 0 1 1 0 1 0
8
0.7351957627037786 0.26480423729622143 0.6515860075908305 0.34841399240916937 0.7123905980606301 0.28760940193936985 0.6576771326523081 0.3423228673476919
8
1 0 1 0 1 0 0 1
8
1 0 1 0 1 0 1 0
8
0 1 1 0 1 0 1 0
8
0 1 1 0 1 0 1 0
8
1 0 1 0 1 0 1 0
4
0 1 0 1
8
1 0 0 1 0 1 0 1
8
0 1 1 0 1 0 1 0
8
1 0 0 1 1 0 1 0
8
1 0 1 0 1 0 0 1
8
0 1 1 0 0 1 1 0
8
1 0 1 0 1 0 1 0
8
0.22926970536415922 0.7707302946358409 0.7289015560039713 0.27109844399602867 0.470776072679042 0.529223927320958 0.9978802510716936 0.002119748928306375
8
0 1 0 1 0 1 0 1
8
0 1 1 0 0 1 0 1
8
1 0 0 1 0 1 1 0
8
0 1 0 1 0 1 1 0
8
0 1 0 1 0 1 1 0
8
0.5753936317765905 0.42460636822340947 0.5024445598902573 0.49755544010974273 0.3114336375853397 0.6885663624146604 0.4448282682236665 0.5551717317763335
8
1 0 0 1 0 1 0 1
8
1 0 1 0 1 0 0 1
8
0 1 1 0 0 1 0 1
8
1 0 0 1 0 1 1 0
8
0 1 0 1 0 1 1 0
8
0 1 0 1 0 1 1 0
4
1 0 1 0
8
1 0 1 0 1 0 0 1
8
0 1 0 1 1 0 0 1
8
1 0 1 0 0 1 1 0
8
1 0 0 1 1 0 1 0
8
0 1 1 0 1 0 1 0
8
0 1 0 1 1 0 0 1
8
0 1 0 1 0 1 0 1
8
0 1 0 1 1 0 1 0
8
0 1 0 1 1 0 1 0
8
1 0 0 1 0 1 1 0
8
1 0 0 1 0 1 1 0
8
0.4101627841467804 0.5898372158532195 0.025329852389169526 0.9746701476108305 0.2962609523739207 0.7037390476260793 0.4647227152162815 0.5352772847837185
8
0 1 1 0 0 1 0 1
8
1 0 1 0 1 0 1 0
8
1 0 0 1 0 1 0 1
8
0 1 0 1 0 1 1 0
8
1 0 0 1 1 0 1 0
8
1 0 1 0 0 1 1 0
8
0 1 0 1 1 0 0 1
4
0 1 0 1
8
0 1 0 1 1 0 0 1
8
0 1 0 1 1 0 0 1
8
1 0 0 1 0 1 0 1
8
1 0 0 1 1 0 1 0
8
0 1 1 0 1 0 1 0
8
0 1 0 1 1 0 0 1
8
0 1 1 0 0 1 0 1
8
0 1 0 1 0 1 0 1
8
0 1 1 0 0 1 1 0
8
0 1 0 1 0 1 1 0
8
0.37755476503282953 0.6224452349671703 0.7835674599311918 0.21643254006880822 0.6859589320902791 0.3140410679097208 0.4486582881837773 0.5513417118162227
8
1 0 1 0 0 1 0 1
8
0 1 1 0 0 1 0 1
8
1 0 0 1 0 1 0 1
8
0 1 1 0 0 1 1 0
8
0 1 1 0 1 0 1 0
8
0 1 1 0 1 0 1 0
8
0 1 0 1 1 0 1 0
8
0 1 0 1 0 1 1 0
4
0.673040499598363 0.326959500401637 0.21951085356238764 0.7804891464376124
8
1 0 1 0 1 0 1 0
8
1 0 1 0 1 0 1 0
8
0 1 0 1 0 1 0 1
8
0 1 1 0 0 1 1 0
8
1 0 0 1 0 1 1 0
8
1 0 1 0 1 0 1 0
8
1 0 1 0 1 0 1 0
8
1 0 0 1 1 0 1 0
8
0 1 1 0 0 1 0 1
8
1 0 1 0 1 0 1 0
8
0 1 1 0 0 1 1 0
8
0 1 1 0 1 0 0 1
8
0 1 1 0 0 1 0 1
8
0 1 0 1 0 1 1 0
8
0 1 1 0 1 0 0 1
8
0 1 1 0 1 0 0 1
8
1 0 0 1 0 1 1 0
8
1 0 1 0 0 1 1 0
8
1 0 1 0 1 0 0 1
4
1 0 0 1
8
0 1 0 1 1 0 0 1
8
0 1 1 0 0 1 0 1
8
0 1 0 1 1 0 0 1
8
1 0 0 1 0 1 1 0
8
1 0 0 1 0 1 0 1
8
0 1 1 0 1 0 0 1
8
1 0 0 1 1 0 0 1
8
1 0 1 0 1 0 1 0
8
1 0 1 0 0 1 0 1
8
0 1 0 1 1 0 1 0
8
0 1 1 0 0 1 1 0
8
1 0 1 0 0 1 1 0
8
0 1 0 1 0 1 1 0
8
0.26761414975967746 0.7323858502403227 0.17006711429205662 0.8299328857079434 0.5836434445389171 0.4163565554610828 0.3025708446478284 0.6974291553521716
8
1 0 1 0 1 0 0 1
8
1 0 0 1 1 0 0 1
8
1 0 0 1 0 1 0 1
8
1 0 0 1 0 1 0 1
8
0.6569674424458447 0.34303255755415524 0.345591149737924 0.654408850262076 0.8152798529615907 0.18472014703840936 0.9464403051648568 0.053559694835143175
4
0 1 0 1
8
1 0 1 0 1 0 0 1
8
0 1 0 1 1 0 0 1
8
0 1 0 1 1 0 1 0
8
0 1 0 1 0 1 0 1
8
0 1 1 0 0 1 0 1
8
1 0 1 0 0 1 1 0
8
1 0 0 1 1 0 0 1
8
0 1 1 0 1 0 1 0
8
1 0 1 0 0 1 1 0
8
1 0 1 0 1 0 0 1
8
0 1 1 0 1 0 1 0
8
0 1 0 1 1 0 0 1
8
0 1 0 1 1 0 0 1
8
1 0 0 1 1 0 0 1
8
1 0 1 0 1 0 0 1
8
0.47519857291895745 0.5248014270810426 0.6782105050798037 0.3217894949201963 0.691386807260583 0.308613192739417 0.42050380878310645 0.5794961912168936
8
1 0 1 0 1 0 1 0
8
0 1 1 0 0 1 0 1
8
0 1 0 1 1 0 0 1
4
0 1 1 0
8
1 0 1 0 0 1 0 1
8
0 1 1 0 1 0 0 1
8
0 1 0 1 1 0 0 1
8
0.5168762178027032 0.48312378219729685 0.21023444168922478 0.7897655583107753 0.9354405101673198 0.0645594898326803 0.9039839535382161 0.09601604646178381
8
1 0 0 1 0 1 0 1
8
0 1 1 0 0 1 1 0
8
1 0 0 1 1 0 1 0
8
1 0 1 0 0 1 1 0
8
1 0 1 0 0 1 0 1
8
0 1 1 0 0 1 1 0
8
0 1 1 0 0 1 0 1
8
0 1 0 1 1 0 0 1
8
1 0 0 1 1 0 0 1
8
1 0 1 0 0 1 0 1
8
0 1 1 0 1 0 0 1
8
0 1 0 1 0 1 1 0
8
0 1 1 0 1 0 0 1
8
1 0 1 0 0 1 0 1
8
1 0 0 1 0 1 0 1
4
1 0 0 1
8
1 0 1 0 0 1 1 0
8
1 0 1 0 1 0 0 1
8
0 1 0 1 1 0 0 1
8
1 0 1 0 0 1 0 1
8
0.5051334873221661 0.4948665126778339 0.42031846883243656 0.5796815311675634 0.870316207114836 0.12968379288516407 0.5689104278311266 0.4310895721688734
8
1 0 0 1 0 1 0 1
8
0 1 0 1 0 1 1 0
8
0 1 1 0 0 1 1 0
8
0.7817048067374903 0.21829519326250965 0.4953498302734638 0.5046501697265362 0.06994698808168716 0.9300530119183128 0.9279222902380937 0.0720777097619063
8
1 0 1 0 0 1 0 1
8
0 1 1 0 1 0 1 0
8
0 1 0 1 0 1 0 1
8
0 1 1 0 0 1 0 1
8
1 0 1 0 1 0 1 0
8
1 0 1 0 1 0 0 1
8
0 1 0 1 0 1 1 0
8
0 1 1 0 0 1 0 1
8
1 0 1 0 1 0 1 0
8
1 0 0 1 0 1 0 1
4
0.3767960542742027 0.6232039457257973 0.6689828794641172 0.33101712053588284
8
1 0 1 0 0 1 1 0
8
0 1 0 1 0 1 1 0
8
0 1 1 0 1 0 1 0
8
0 1 1 0 0 1 1 0
8
0.3713386595674214 0.6286613404325787 0.7492226743265209 0.25077732567347916 0.5317477224189893 0.46825227758101085 0.3852506223112958 0.6147493776887042
8
1 0 0 1 0 1 1 0
8
1 0 1 0 0 1 0 1
8
1 0 0 1 1 0 1 0
8
0 1 0 1 0 1 0 1
8
0 1 1 0 0 1 0 1
8
1 0 0 1 0 1 1 0
8
1 0 0 1 1 0 0 1
8
1 0 0 1 1 0 0 1
8
0 1 0 1 1 0 1 0
8
0 1 0 1 1 0 1 0
8
0.8913948319756031 0.10860516802439686 0.13923542671048458 0.8607645732895154 0.6484717291784501 0.3515282708215499 0.7185125016376678 0.2814874983623321
8
0 1 1 0 1 0 1 0
8
0 1 0 1 0 1 1 0
8
1 0 0 1 0 1 0 1
4
0.8692783917450071 0.13072160825499293 0.6772461330530591 0.32275386694694086
4
0 1 1 0
4
1 0 0 1
4
0 1 0 1
4
0 1 1 0
4
1 0 1 0
4
0.9976565040253937 0.00234349597460627 0.9110382523444808 0.08896174765551926
4
1 0 0 1
4
0 1 0 1
4
1 0 0 1
4
1 0 0 1
4
0 1 1 0
4
0 1 1 0
4
0 1 1 0
4
0 1 1 0
4
1 0 0 1
4
0 1 0 1
4
0 1 1 0
4
1 0 1 0
4
1 0 1 0
2
1 0
